Route #1: 14 27
Route #2: 25 15 3 29
Route #3: 16 24
Route #4: 31 12
Route #5: 21 22 18 13 2 19 26
Route #6: 8 4 28
Route #7: 20
Route #8: 5 9 23 30 17
Route #9: 11 6
Route #10: 10
Route #11: 7 1

Cost: 2094.7209178517987
